NAME : mar10_1000_3
COMMENT : Data set with 10 points
COMMENT : CIn-UFPE
COMMENT : Contributed by Marcelo Lacerda
TYPE : TSP
DIMENSION : 10
EDGE_WEIGHT_TYPE : EUC_2D
NODE_COORD_SECTION
1 869 919
2 286 798
3 984 688
4 587 723
5 457 552
6 714 395
7 603 987
8 152 980
9 77 317
10 614 154
EOF
